\ENCODING=ISO-8859-1
\Problem name: kMIS

Maximize
 obj: x1 + x2 + x3 + x4 + x5 + x6 + x7 + x8 + x9 + x10 + x11 + x12 + x13 + x14
      + x15 + x16 + x17 + x18 + x19 + x20 + x21 + x22 + x23 + x24 + x25 + x26
      + x27 + x28 + x29 + x30
Subject To
 c1:   x31 + x32 + x33 + x34 + x35 + x36 + x37 + x38 + x39 + x40 + x41 + x42
       + x43 + x44 + x45 + x46 + x47 + x48 + x49 + x50 + x51 + x52 + x53 + x54
       + x55 + x56 + x57 + x58 + x59 + x60  = 9
 c2:   x4 + x31 <= 1
 c3:   x6 + x31 <= 1
 c4:   x7 + x31 <= 1
 c5:   x9 + x31 <= 1
 c6:   x10 + x31 <= 1
 c7:   x12 + x31 <= 1
 c8:   x14 + x31 <= 1
 c9:   x15 + x31 <= 1
 c10:  x17 + x31 <= 1
 c11:  x21 + x31 <= 1
 c12:  x22 + x31 <= 1
 c13:  x26 + x31 <= 1
 c14:  x28 + x31 <= 1
 c15:  x2 + x32 <= 1
 c16:  x3 + x32 <= 1
 c17:  x4 + x32 <= 1
 c18:  x6 + x32 <= 1
 c19:  x7 + x32 <= 1
 c20:  x9 + x32 <= 1
 c21:  x10 + x32 <= 1
 c22:  x11 + x32 <= 1
 c23:  x12 + x32 <= 1
 c24:  x14 + x32 <= 1
 c25:  x15 + x32 <= 1
 c26:  x21 + x32 <= 1
 c27:  x22 + x32 <= 1
 c28:  x23 + x32 <= 1
 c29:  x24 + x32 <= 1
 c30:  x25 + x32 <= 1
 c31:  x2 + x33 <= 1
 c32:  x4 + x33 <= 1
 c33:  x7 + x33 <= 1
 c34:  x8 + x33 <= 1
 c35:  x9 + x33 <= 1
 c36:  x10 + x33 <= 1
 c37:  x13 + x33 <= 1
 c38:  x17 + x33 <= 1
 c39:  x18 + x33 <= 1
 c40:  x19 + x33 <= 1
 c41:  x22 + x33 <= 1
 c42:  x23 + x33 <= 1
 c43:  x25 + x33 <= 1
 c44:  x26 + x33 <= 1
 c45:  x27 + x33 <= 1
 c46:  x30 + x33 <= 1
 c47:  x1 + x34 <= 1
 c48:  x2 + x34 <= 1
 c49:  x3 + x34 <= 1
 c50:  x4 + x34 <= 1
 c51:  x7 + x34 <= 1
 c52:  x10 + x34 <= 1
 c53:  x12 + x34 <= 1
 c54:  x16 + x34 <= 1
 c55:  x18 + x34 <= 1
 c56:  x19 + x34 <= 1
 c57:  x20 + x34 <= 1
 c58:  x21 + x34 <= 1
 c59:  x22 + x34 <= 1
 c60:  x23 + x34 <= 1
 c61:  x25 + x34 <= 1
 c62:  x27 + x34 <= 1
 c63:  x28 + x34 <= 1
 c64:  x29 + x34 <= 1
 c65:  x30 + x34 <= 1
 c66:  x1 + x35 <= 1
 c67:  x4 + x35 <= 1
 c68:  x7 + x35 <= 1
 c69:  x8 + x35 <= 1
 c70:  x9 + x35 <= 1
 c71:  x11 + x35 <= 1
 c72:  x14 + x35 <= 1
 c73:  x16 + x35 <= 1
 c74:  x19 + x35 <= 1
 c75:  x22 + x35 <= 1
 c76:  x24 + x35 <= 1
 c77:  x25 + x35 <= 1
 c78:  x26 + x35 <= 1
 c79:  x27 + x35 <= 1
 c80:  x29 + x35 <= 1
 c81:  x30 + x35 <= 1
 c82:  x1 + x36 <= 1
 c83:  x3 + x36 <= 1
 c84:  x8 + x36 <= 1
 c85:  x14 + x36 <= 1
 c86:  x19 + x36 <= 1
 c87:  x22 + x36 <= 1
 c88:  x24 + x36 <= 1
 c89:  x25 + x36 <= 1
 c90:  x26 + x36 <= 1
 c91:  x27 + x36 <= 1
 c92:  x28 + x36 <= 1
 c93:  x29 + x36 <= 1
 c94:  x30 + x36 <= 1
 c95:  x1 + x37 <= 1
 c96:  x2 + x37 <= 1
 c97:  x5 + x37 <= 1
 c98:  x6 + x37 <= 1
 c99:  x7 + x37 <= 1
 c100: x10 + x37 <= 1
 c101: x15 + x37 <= 1
 c102: x17 + x37 <= 1
 c103: x18 + x37 <= 1
 c104: x21 + x37 <= 1
 c105: x22 + x37 <= 1
 c106: x25 + x37 <= 1
 c107: x26 + x37 <= 1
 c108: x27 + x37 <= 1
 c109: x28 + x37 <= 1
 c110: x29 + x37 <= 1
 c111: x30 + x37 <= 1
 c112: x2 + x38 <= 1
 c113: x3 + x38 <= 1
 c114: x4 + x38 <= 1
 c115: x5 + x38 <= 1
 c116: x7 + x38 <= 1
 c117: x17 + x38 <= 1
 c118: x18 + x38 <= 1
 c119: x19 + x38 <= 1
 c120: x20 + x38 <= 1
 c121: x21 + x38 <= 1
 c122: x24 + x38 <= 1
 c123: x27 + x38 <= 1
 c124: x28 + x38 <= 1
 c125: x2 + x39 <= 1
 c126: x6 + x39 <= 1
 c127: x8 + x39 <= 1
 c128: x9 + x39 <= 1
 c129: x10 + x39 <= 1
 c130: x11 + x39 <= 1
 c131: x13 + x39 <= 1
 c132: x15 + x39 <= 1
 c133: x17 + x39 <= 1
 c134: x18 + x39 <= 1
 c135: x20 + x39 <= 1
 c136: x22 + x39 <= 1
 c137: x24 + x39 <= 1
 c138: x25 + x39 <= 1
 c139: x26 + x39 <= 1
 c140: x29 + x39 <= 1
 c141: x30 + x39 <= 1
 c142: x6 + x40 <= 1
 c143: x9 + x40 <= 1
 c144: x10 + x40 <= 1
 c145: x17 + x40 <= 1
 c146: x19 + x40 <= 1
 c147: x21 + x40 <= 1
 c148: x22 + x40 <= 1
 c149: x25 + x40 <= 1
 c150: x26 + x40 <= 1
 c151: x27 + x40 <= 1
 c152: x29 + x40 <= 1
 c153: x30 + x40 <= 1
 c154: x1 + x41 <= 1
 c155: x3 + x41 <= 1
 c156: x4 + x41 <= 1
 c157: x7 + x41 <= 1
 c158: x8 + x41 <= 1
 c159: x9 + x41 <= 1
 c160: x11 + x41 <= 1
 c161: x12 + x41 <= 1
 c162: x13 + x41 <= 1
 c163: x16 + x41 <= 1
 c164: x17 + x41 <= 1
 c165: x18 + x41 <= 1
 c166: x20 + x41 <= 1
 c167: x22 + x41 <= 1
 c168: x23 + x41 <= 1
 c169: x25 + x41 <= 1
 c170: x26 + x41 <= 1
 c171: x28 + x41 <= 1
 c172: x30 + x41 <= 1
 c173: x1 + x42 <= 1
 c174: x4 + x42 <= 1
 c175: x5 + x42 <= 1
 c176: x7 + x42 <= 1
 c177: x8 + x42 <= 1
 c178: x10 + x42 <= 1
 c179: x11 + x42 <= 1
 c180: x12 + x42 <= 1
 c181: x15 + x42 <= 1
 c182: x21 + x42 <= 1
 c183: x22 + x42 <= 1
 c184: x26 + x42 <= 1
 c185: x27 + x42 <= 1
 c186: x29 + x42 <= 1
 c187: x1 + x43 <= 1
 c188: x5 + x43 <= 1
 c189: x6 + x43 <= 1
 c190: x7 + x43 <= 1
 c191: x8 + x43 <= 1
 c192: x10 + x43 <= 1
 c193: x11 + x43 <= 1
 c194: x12 + x43 <= 1
 c195: x14 + x43 <= 1
 c196: x15 + x43 <= 1
 c197: x16 + x43 <= 1
 c198: x21 + x43 <= 1
 c199: x22 + x43 <= 1
 c200: x24 + x43 <= 1
 c201: x25 + x43 <= 1
 c202: x27 + x43 <= 1
 c203: x28 + x43 <= 1
 c204: x2 + x44 <= 1
 c205: x4 + x44 <= 1
 c206: x5 + x44 <= 1
 c207: x6 + x44 <= 1
 c208: x7 + x44 <= 1
 c209: x9 + x44 <= 1
 c210: x10 + x44 <= 1
 c211: x12 + x44 <= 1
 c212: x19 + x44 <= 1
 c213: x20 + x44 <= 1
 c214: x21 + x44 <= 1
 c215: x24 + x44 <= 1
 c216: x25 + x44 <= 1
 c217: x27 + x44 <= 1
 c218: x28 + x44 <= 1
 c219: x2 + x45 <= 1
 c220: x5 + x45 <= 1
 c221: x7 + x45 <= 1
 c222: x9 + x45 <= 1
 c223: x11 + x45 <= 1
 c224: x12 + x45 <= 1
 c225: x13 + x45 <= 1
 c226: x18 + x45 <= 1
 c227: x21 + x45 <= 1
 c228: x22 + x45 <= 1
 c229: x28 + x45 <= 1
 c230: x30 + x45 <= 1
 c231: x1 + x46 <= 1
 c232: x3 + x46 <= 1
 c233: x4 + x46 <= 1
 c234: x5 + x46 <= 1
 c235: x6 + x46 <= 1
 c236: x7 + x46 <= 1
 c237: x8 + x46 <= 1
 c238: x10 + x46 <= 1
 c239: x14 + x46 <= 1
 c240: x15 + x46 <= 1
 c241: x16 + x46 <= 1
 c242: x17 + x46 <= 1
 c243: x20 + x46 <= 1
 c244: x23 + x46 <= 1
 c245: x24 + x46 <= 1
 c246: x26 + x46 <= 1
 c247: x29 + x46 <= 1
 c248: x30 + x46 <= 1
 c249: x1 + x47 <= 1
 c250: x2 + x47 <= 1
 c251: x3 + x47 <= 1
 c252: x5 + x47 <= 1
 c253: x6 + x47 <= 1
 c254: x9 + x47 <= 1
 c255: x11 + x47 <= 1
 c256: x16 + x47 <= 1
 c257: x19 + x47 <= 1
 c258: x23 + x47 <= 1
 c259: x24 + x47 <= 1
 c260: x25 + x47 <= 1
 c261: x26 + x47 <= 1
 c262: x27 + x47 <= 1
 c263: x28 + x47 <= 1
 c264: x1 + x48 <= 1
 c265: x2 + x48 <= 1
 c266: x5 + x48 <= 1
 c267: x7 + x48 <= 1
 c268: x8 + x48 <= 1
 c269: x9 + x48 <= 1
 c270: x11 + x48 <= 1
 c271: x14 + x48 <= 1
 c272: x17 + x48 <= 1
 c273: x18 + x48 <= 1
 c274: x19 + x48 <= 1
 c275: x21 + x48 <= 1
 c276: x22 + x48 <= 1
 c277: x23 + x48 <= 1
 c278: x26 + x48 <= 1
 c279: x27 + x48 <= 1
 c280: x28 + x48 <= 1
 c281: x29 + x48 <= 1
 c282: x4 + x49 <= 1
 c283: x5 + x49 <= 1
 c284: x6 + x49 <= 1
 c285: x8 + x49 <= 1
 c286: x13 + x49 <= 1
 c287: x14 + x49 <= 1
 c288: x15 + x49 <= 1
 c289: x16 + x49 <= 1
 c290: x19 + x49 <= 1
 c291: x21 + x49 <= 1
 c292: x22 + x49 <= 1
 c293: x24 + x49 <= 1
 c294: x25 + x49 <= 1
 c295: x28 + x49 <= 1
 c296: x29 + x49 <= 1
 c297: x30 + x49 <= 1
 c298: x2 + x50 <= 1
 c299: x3 + x50 <= 1
 c300: x4 + x50 <= 1
 c301: x9 + x50 <= 1
 c302: x10 + x50 <= 1
 c303: x11 + x50 <= 1
 c304: x13 + x50 <= 1
 c305: x18 + x50 <= 1
 c306: x19 + x50 <= 1
 c307: x24 + x50 <= 1
 c308: x26 + x50 <= 1
 c309: x28 + x50 <= 1
 c310: x29 + x50 <= 1
 c311: x3 + x51 <= 1
 c312: x6 + x51 <= 1
 c313: x7 + x51 <= 1
 c314: x8 + x51 <= 1
 c315: x9 + x51 <= 1
 c316: x12 + x51 <= 1
 c317: x13 + x51 <= 1
 c318: x14 + x51 <= 1
 c319: x15 + x51 <= 1
 c320: x17 + x51 <= 1
 c321: x18 + x51 <= 1
 c322: x20 + x51 <= 1
 c323: x21 + x51 <= 1
 c324: x24 + x51 <= 1
 c325: x25 + x51 <= 1
 c326: x27 + x51 <= 1
 c327: x29 + x51 <= 1
 c328: x2 + x52 <= 1
 c329: x3 + x52 <= 1
 c330: x4 + x52 <= 1
 c331: x6 + x52 <= 1
 c332: x9 + x52 <= 1
 c333: x10 + x52 <= 1
 c334: x13 + x52 <= 1
 c335: x14 + x52 <= 1
 c336: x15 + x52 <= 1
 c337: x16 + x52 <= 1
 c338: x19 + x52 <= 1
 c339: x24 + x52 <= 1
 c340: x1 + x53 <= 1
 c341: x5 + x53 <= 1
 c342: x6 + x53 <= 1
 c343: x7 + x53 <= 1
 c344: x10 + x53 <= 1
 c345: x11 + x53 <= 1
 c346: x12 + x53 <= 1
 c347: x14 + x53 <= 1
 c348: x18 + x53 <= 1
 c349: x20 + x53 <= 1
 c350: x24 + x53 <= 1
 c351: x27 + x53 <= 1
 c352: x28 + x53 <= 1
 c353: x29 + x53 <= 1
 c354: x30 + x53 <= 1
 c355: x2 + x54 <= 1
 c356: x3 + x54 <= 1
 c357: x5 + x54 <= 1
 c358: x8 + x54 <= 1
 c359: x9 + x54 <= 1
 c360: x11 + x54 <= 1
 c361: x13 + x54 <= 1
 c362: x14 + x54 <= 1
 c363: x15 + x54 <= 1
 c364: x17 + x54 <= 1
 c365: x18 + x54 <= 1
 c366: x19 + x54 <= 1
 c367: x20 + x54 <= 1
 c368: x21 + x54 <= 1
 c369: x22 + x54 <= 1
 c370: x24 + x54 <= 1
 c371: x27 + x54 <= 1
 c372: x28 + x54 <= 1
 c373: x1 + x55 <= 1
 c374: x5 + x55 <= 1
 c375: x7 + x55 <= 1
 c376: x13 + x55 <= 1
 c377: x15 + x55 <= 1
 c378: x16 + x55 <= 1
 c379: x17 + x55 <= 1
 c380: x19 + x55 <= 1
 c381: x20 + x55 <= 1
 c382: x26 + x55 <= 1
 c383: x27 + x55 <= 1
 c384: x28 + x55 <= 1
 c385: x29 + x55 <= 1
 c386: x1 + x56 <= 1
 c387: x2 + x56 <= 1
 c388: x3 + x56 <= 1
 c389: x4 + x56 <= 1
 c390: x8 + x56 <= 1
 c391: x9 + x56 <= 1
 c392: x13 + x56 <= 1
 c393: x19 + x56 <= 1
 c394: x20 + x56 <= 1
 c395: x22 + x56 <= 1
 c396: x25 + x56 <= 1
 c397: x29 + x56 <= 1
 c398: x1 + x57 <= 1
 c399: x9 + x57 <= 1
 c400: x10 + x57 <= 1
 c401: x13 + x57 <= 1
 c402: x15 + x57 <= 1
 c403: x16 + x57 <= 1
 c404: x17 + x57 <= 1
 c405: x19 + x57 <= 1
 c406: x20 + x57 <= 1
 c407: x21 + x57 <= 1
 c408: x22 + x57 <= 1
 c409: x23 + x57 <= 1
 c410: x24 + x57 <= 1
 c411: x29 + x57 <= 1
 c412: x30 + x57 <= 1
 c413: x1 + x58 <= 1
 c414: x2 + x58 <= 1
 c415: x4 + x58 <= 1
 c416: x5 + x58 <= 1
 c417: x6 + x58 <= 1
 c418: x7 + x58 <= 1
 c419: x9 + x58 <= 1
 c420: x10 + x58 <= 1
 c421: x11 + x58 <= 1
 c422: x12 + x58 <= 1
 c423: x13 + x58 <= 1
 c424: x14 + x58 <= 1
 c425: x15 + x58 <= 1
 c426: x16 + x58 <= 1
 c427: x17 + x58 <= 1
 c428: x21 + x58 <= 1
 c429: x23 + x58 <= 1
 c430: x25 + x58 <= 1
 c431: x27 + x58 <= 1
 c432: x29 + x58 <= 1
 c433: x2 + x59 <= 1
 c434: x5 + x59 <= 1
 c435: x7 + x59 <= 1
 c436: x11 + x59 <= 1
 c437: x13 + x59 <= 1
 c438: x14 + x59 <= 1
 c439: x15 + x59 <= 1
 c440: x18 + x59 <= 1
 c441: x23 + x59 <= 1
 c442: x25 + x59 <= 1
 c443: x27 + x59 <= 1
 c444: x29 + x59 <= 1
 c445: x30 + x59 <= 1
 c446: x1 + x60 <= 1
 c447: x3 + x60 <= 1
 c448: x10 + x60 <= 1
 c449: x12 + x60 <= 1
 c450: x14 + x60 <= 1
 c451: x15 + x60 <= 1
 c452: x21 + x60 <= 1
 c453: x25 + x60 <= 1
 c454: x26 + x60 <= 1
 c455: x28 + x60 <= 1
Bounds
 0 <= x1 <= 1
 0 <= x2 <= 1
 0 <= x3 <= 1
 0 <= x4 <= 1
 0 <= x5 <= 1
 0 <= x6 <= 1
 0 <= x7 <= 1
 0 <= x8 <= 1
 0 <= x9 <= 1
 0 <= x10 <= 1
 0 <= x11 <= 1
 0 <= x12 <= 1
 0 <= x13 <= 1
 0 <= x14 <= 1
 0 <= x15 <= 1
 0 <= x16 <= 1
 0 <= x17 <= 1
 0 <= x18 <= 1
 0 <= x19 <= 1
 0 <= x20 <= 1
 0 <= x21 <= 1
 0 <= x22 <= 1
 0 <= x23 <= 1
 0 <= x24 <= 1
 0 <= x25 <= 1
 0 <= x26 <= 1
 0 <= x27 <= 1
 0 <= x28 <= 1
 0 <= x29 <= 1
 0 <= x30 <= 1
 0 <= x31 <= 1
 0 <= x32 <= 1
 0 <= x33 <= 1
 0 <= x34 <= 1
 0 <= x35 <= 1
 0 <= x36 <= 1
 0 <= x37 <= 1
 0 <= x38 <= 1
 0 <= x39 <= 1
 0 <= x40 <= 1
 0 <= x41 <= 1
 0 <= x42 <= 1
 0 <= x43 <= 1
 0 <= x44 <= 1
 0 <= x45 <= 1
 0 <= x46 <= 1
 0 <= x47 <= 1
 0 <= x48 <= 1
 0 <= x49 <= 1
 0 <= x50 <= 1
 0 <= x51 <= 1
 0 <= x52 <= 1
 0 <= x53 <= 1
 0 <= x54 <= 1
 0 <= x55 <= 1
 0 <= x56 <= 1
 0 <= x57 <= 1
 0 <= x58 <= 1
 0 <= x59 <= 1
 0 <= x60 <= 1
Binaries
 x1  x2  x3  x4  x5  x6  x7  x8  x9  x10  x11  x12  x13  x14  x15  x16  x17 
 x18  x19  x20  x21  x22  x23  x24  x25  x26  x27  x28  x29  x30  x31  x32 
 x33  x34  x35  x36  x37  x38  x39  x40  x41  x42  x43  x44  x45  x46  x47 
 x48  x49  x50  x51  x52  x53  x54  x55  x56  x57  x58  x59  x60 
End
